rc101_2
0 95 70 71 88 69 61 100 97 96 85 99 98 76 5 46 44 43 42 40 41 45 48 49 47 77 59 86 101 0 74 103 73 66 75 105 60 93 58 87 104 57 2 16 15 14 18 20 21 22 52 19 17 83 78 84 12 11 1 6 8 10 50 9 51 13 7 65 91 79 92 2 64 102 63 82 30 28 26 53 23 24 54 25 27 29 3 56 90 68 81 94 38 35 37 33 31 32 34 36 4 39 55 67 72 89 62 80 0